# Synthetic demonstration graph: N=100, k=4, gamma=1, seed=42
0 1
0 2
0 3
0 5
0 7
0 11
0 16
0 28
0 37
0 40
0 45
0 65
0 70
0 77
0 84
0 90
1 2
1 10
1 17
1 21
1 32
1 51
2 3
2 4
2 8
2 15
2 20
2 22
2 27
2 32
2 45
2 52
2 57
2 64
2 67
2 72
2 80
2 83
2 96
3 4
3 6
3 7
3 10
3 13
3 15
3 19
3 24
3 26
3 28
3 38
3 39
3 44
3 47
3 48
3 58
3 60
3 66
3 68
3 79
3 90
3 99
4 5
4 6
4 9
4 11
4 12
4 16
4 19
4 22
4 26
4 36
4 41
4 54
4 56
5 20
5 23
5 40
5 50
5 84
6 21
6 59
6 75
7 8
7 9
7 13
7 31
7 33
7 43
7 49
7 51
7 81
7 89
7 97
7 98
8 12
8 66
8 88
9 17
9 38
9 69
9 76
10 14
10 15
10 18
10 22
10 37
10 46
10 49
10 87
10 94
11 35
12 24
12 29
12 31
12 34
12 36
12 56
12 58
12 62
12 64
12 85
13 14
13 27
13 42
13 47
13 96
15 30
15 33
15 35
15 71
15 77
16 18
16 23
16 25
16 65
16 73
16 75
16 91
17 25
17 29
17 30
17 41
17 43
17 73
18 50
18 59
19 34
19 63
19 76
21 69
22 46
22 70
22 74
22 88
23 48
23 53
23 67
23 85
23 94
24 62
24 79
25 42
25 63
26 55
28 39
28 44
29 61
32 55
34 61
34 81
35 77
36 80
42 95
43 82
44 53
44 72
45 60
47 57
48 52
48 82
50 54
51 92
52 78
55 86
55 97
58 68
58 95
59 86
63 78
65 71
65 74
70 83
71 99
73 92
74 93
75 93
78 89
79 87
86 98
89 91
